objective value:                                  -12
t_n_7                                               1 	(obj:-1)
t_n_299                                             1 	(obj:-1)
t_n_436                                             1 	(obj:-1)
t_n_617                                             1 	(obj:-1)
t_n_699                                             1 	(obj:-1)
t_n_711                                             1 	(obj:-1)
t_n_783                                             1 	(obj:-1)
t_n_915                                             1 	(obj:-1)
t_n_923                                             1 	(obj:-1)
t_n_935                                             1 	(obj:-1)
t_n_946                                             1 	(obj:-1)
t_n_951                                             1 	(obj:-1)
